\ Model opt_adjust
\ LP format - for model browsing. Use MPS format to capture full model detail.
Minimize
  x[0,0] + x[0,1] + x[1,0] + x[1,1] + x[2,0] + x[2,1] + x[3,0] + x[3,1]
Subject To
 qc0: [ x[0,0] * y[0] + x[1,0] * y[1] + x[2,0] * y[2] + x[3,0] * y[3] ]
   = 3
 qc1: [ x[0,1] * y[0] + x[1,1] * y[1] + x[2,1] * y[2] + x[3,1] * y[3] ]
   = 3
 qc2: - 29 y[0] + [ 1.909090909090909 x[0,0] * y[0] ] = 0
 qc3: - 19 y[1] + [ 1.909090909090909 x[1,0] * y[1] ] = 0
 qc4: - 7 y[2] + [ 1.909090909090909 x[2,0] * y[2] ] = 0
 qc5: - 21 y[3] + [ 1.909090909090909 x[3,0] * y[3] ] = 0
Bounds
 x[0,0] >= -16
 x[0,1] >= 11
 x[1,0] >= 8
 x[1,1] >= -20
 x[2,0] >= -12
 x[2,1] >= -10
 x[3,0] >= 11
 x[3,1] >= 13
End
